
c turning on binary mode checking

c parsing input formula with 7268 variables and 28642 clauses

c finished parsing, read 15949 bytes from proof file

c detected empty clause; start verification via backward checking

c 2140 of 28642 clauses in core                            

c 92 of 3855 lemmas in core using 24348 resolution steps

c 0 RAT lemmas in core; 4 redundant literals in core lemmas

s VERIFIED

c verification time: 0.059 seconds
